c ind 11 12 15 4 5 8 9 0
p cnf 15 35
-1 -2 6 0
-1 2 14 0
-10 -11 12 0
-10 -12 11 0
-12 0
-13 -11 9 0
-13 -9 11 0
-14 -11 15 0
-14 -15 11 0
-2 -3 0
-3 -4 5 0
-3 -5 4 0
-6 -7 10 0
-6 7 13 0
-7 -8 9 0
-7 -9 8 0
1 -2 -6 0
1 -6 -14 0
1 0
1 2 -14 0
10 -11 -12 0
10 11 12 0
13 -11 -9 0
13 11 9 0
14 -11 -15 0
14 11 15 0
2 3 0
3 -4 -5 0
3 4 5 0
6 -10 -13 0
6 -7 -10 0
6 7 -13 0
7 -8 -9 0
7 8 9 0
9 0
